
Gurobi 12.0.3 (linux64) logging started Fri Mar 27 02:46:09 2026

Set parameter LogFile to value "/home/solar-wind/WT_Solar_results_bigM100000_thread4/case24_ieee_rts_theta0.12_epsilon0.08_gurobi_seed40000_num_gen38_N_WDR250_load_scaling_factor1_EIFICA_T24_num_Solar5_num_WT10.txt"
Gurobi Optimizer version 12.0.3 build v12.0.3rc0 (linux64 - "Ubuntu 22.04.5 LTS")

CPU model: Intel(R) Xeon(R) Platinum 8378A CPU @ 3.00GHz, instruction set [SSE2|AVX|AVX2|AVX512]
Thread count: 32 physical cores, 64 logical processors, using up to 4 threads

Non-default parameters:
TimeLimit  14400
MIPGap  0.001
Seed  40000
Threads  4

Academic license 2721591 - for non-commercial use only - registered to fa___@mails.neu.edu.cn
Optimize a model with 715588 rows, 2075 columns and 63102568 nonzeros
Model fingerprint: 0x18c70797
Model has 912 quadratic objective terms
Coefficient statistics:
  Matrix range     [3e-07, 7e+01]
  Objective range  [2e+01, 6e+01]
  QObjective range [4e-03, 2e-02]
  Bounds range     [0e+00, 0e+00]
  RHS range        [5e-02, 1e+03]
Presolve removed 525577 rows and 0 columns (presolve time = 5s)...
Presolve removed 526451 rows and 0 columns
Presolve time: 6.43s
Presolved: 189137 rows, 2949 columns, 4341004 nonzeros
Presolved model has 912 quadratic objective terms
Elapsed ordering time = 16s
Ordering time: 30.93s
Elapsed ordering time = 31s
Elapsed ordering time = 36s
Elapsed ordering time = 42s
Elapsed ordering time = 47s
Elapsed ordering time = 52s
Elapsed ordering time = 55s
Elapsed ordering time = 58s
Elapsed ordering time = 60s
Ordering time: 62.89s

Barrier statistics:
 Dense cols : 1087
 AA' NZ     : 2.202e+08
 Factor NZ  : 9.851e+08 (roughly 8.0 GB of memory)
 Factor Ops : 1.740e+13 (roughly 100 seconds per iteration)
 Threads    : 4

                  Objective                Residual
Iter       Primal          Dual         Primal    Dual     Compl     Time
   0   5.83258487e+08 -3.28363628e+08  3.80e+04 1.00e+03  9.92e+05   170s
   1   5.47428573e+08 -3.03417576e+08  3.65e+04 9.59e+02  9.52e+05   170s
   2   5.42198271e+08 -3.54872578e+08  3.62e+04 9.53e+02  9.48e+05   170s
   3   4.91789138e+08 -4.21036992e+08  3.41e+04 8.92e+02  9.12e+05   170s
   4   4.38392805e+08 -4.85765944e+08  3.16e+04 8.24e+02  8.88e+05   171s
   5   3.89888669e+08 -4.79459550e+08  2.93e+04 7.61e+02  8.20e+05   171s
   6   3.48040161e+08 -4.79208259e+08  2.71e+04 7.03e+02  7.59e+05   171s
   7   3.10812663e+08 -4.84072326e+08  2.52e+04 6.49e+02  7.02e+05   171s
   8   2.79963077e+08 -4.91818754e+08  2.34e+04 6.02e+02  6.52e+05   171s
   9   2.50338817e+08 -5.03176028e+08  2.16e+04 5.55e+02  6.01e+05   171s
  10   2.18335401e+08 -5.55794206e+08  1.96e+04 5.02e+02  5.80e+05   172s
  11   1.91780658e+08 -5.72757218e+08  1.78e+04 4.55e+02  5.27e+05   172s
  12   1.70519707e+08 -5.85647514e+08  1.63e+04 4.15e+02  4.82e+05   172s
  13   1.48025899e+08 -6.18747947e+08  1.47e+04 3.70e+02  4.45e+05   172s
  14   1.30442518e+08 -6.36039717e+08  1.34e+04 3.34e+02  4.03e+05   172s
  15   1.12926259e+08 -6.54720232e+08  1.19e+04 2.97e+02  3.59e+05   172s
  16   9.92569117e+07 -6.70889530e+08  1.08e+04 2.67e+02  3.23e+05   173s
  17   8.84123009e+07 -6.88813139e+08  9.85e+03 2.42e+02  2.93e+05   173s
  18   7.68774641e+07 -7.09321729e+08  8.80e+03 2.15e+02  2.61e+05   173s
  19   6.70406546e+07 -7.27723695e+08  7.86e+03 1.91e+02  2.32e+05   173s
  20   5.13521830e+07 -7.55674666e+08  6.28e+03 1.51e+02  1.86e+05   173s
  21   4.39354560e+07 -7.70352892e+08  5.49e+03 1.31e+02  1.62e+05   173s
  22   3.56083908e+07 -7.85055733e+08  4.55e+03 1.08e+02  1.35e+05   173s
  23   2.85870716e+07 -7.95255974e+08  3.86e+03 8.85e+01  1.11e+05   174s
  24   1.40662462e+07 -8.09600001e+08  3.56e+03 4.42e+01  7.13e+04   174s
  25   1.08083694e+07 -7.89293780e+08  3.03e+03 3.39e+01  5.52e+04   174s
  26   8.76455341e+06 -7.64915478e+08  2.65e+03 2.73e+01  4.48e+04   174s
  27   6.97189173e+06 -7.34112381e+08  2.35e+03 2.15e+01  3.56e+04   174s
  28   5.37826445e+06 -6.91467707e+08  1.95e+03 1.63e+01  2.72e+04   174s
  29   3.61887992e+06 -6.13662974e+08  1.36e+03 1.05e+01  1.80e+04   174s
  30   2.98061933e+06 -5.67766111e+08  1.11e+03 8.38e+00  1.46e+04   174s
  31   2.26438359e+06 -5.06233899e+08  8.30e+02 6.03e+00  1.07e+04   175s
  32   1.74932481e+06 -4.42209386e+08  5.84e+02 4.29e+00  7.74e+03   175s
  33   1.22820839e+06 -4.40928912e+08  3.16e+02 2.44e+00  5.80e+03   175s
  34   1.07302037e+06 -3.86975902e+08  2.39e+02 1.86e+00  4.49e+03   175s
  35   8.39653482e+05 -3.14360866e+08  1.12e+02 8.81e-01  2.66e+03   175s
  36   7.90832042e+05 -2.78202889e+08  8.57e+01 6.74e-01  2.17e+03   176s
  37   7.41242098e+05 -2.32750117e+08  5.90e+01 4.62e-01  1.64e+03   176s
  38   7.20006049e+05 -2.04443475e+08  4.54e+01 3.56e-01  1.37e+03   176s
  39   7.03585914e+05 -1.76775964e+08  3.42e+01 2.68e-01  1.12e+03   177s
  40   6.92037749e+05 -1.53084101e+08  2.57e+01 2.02e-01  9.36e+02   177s
  41   6.87388062e+05 -1.38732769e+08  2.14e+01 1.69e-01  8.31e+02   178s
  42   6.84971354e+05 -1.28460659e+08  1.86e+01 1.46e-01  7.59e+02   178s
  43   6.81719855e+05 -1.10444540e+08  1.41e+01 1.10e-01  6.39e+02   179s
  44   6.80831339e+05 -1.04445196e+08  1.20e+01 9.36e-02  6.00e+02   180s
  45   6.79783688e+05 -7.44995530e+07  8.33e+00 6.48e-02  4.22e+02   181s
  46   6.78598470e+05 -6.26995116e+07  6.13e+00 4.77e-02  3.50e+02   185s
  47   6.76185356e+05 -2.74431365e+07  8.32e-01 3.44e-02  1.47e+02   222s
  48   6.73161569e+05  1.34986507e+05  1.31e-02 1.03e-01  2.79e+00   260s
  49   6.20166050e+05  4.72624443e+05  8.03e-04 1.09e-04  7.65e-01   300s
  50   5.98665036e+05  5.54909974e+05  1.34e-04 1.89e-05  2.27e-01   578s
  51   5.92721746e+05  5.75617731e+05  1.53e-04 3.45e-06  8.86e-02  1013s
  52   5.91113175e+05  5.81196832e+05  7.80e-06 1.76e-07  5.14e-02  1085s
  53   5.89873795e+05  5.87605357e+05  2.84e-07 6.40e-09  1.18e-02  1158s
  54   5.89608446e+05  5.88838284e+05  3.41e-08 7.70e-10  3.99e-03  1232s
  55   5.89554154e+05  5.89076422e+05  1.03e-09 2.94e-11  2.48e-03  1307s
  56   5.89499696e+05  5.89348667e+05  1.06e-09 4.85e-11  7.83e-04  1382s
  57   5.89487352e+05  5.89409726e+05  3.68e-10 2.22e-12  4.02e-04  1454s
  58   5.89477960e+05  5.89455717e+05  1.09e-09 2.99e-11  1.15e-04  1526s
  59   5.89474439e+05  5.89472963e+05  1.41e-08 2.58e-12  7.65e-06  1599s
  60   5.89474232e+05  5.89473937e+05  8.34e-09 2.49e-12  1.53e-06  1678s
  61   5.89474181e+05  5.89474181e+05  4.16e-09 1.70e-11  1.62e-09  1811s

Barrier solved model in 61 iterations and 1810.83 seconds (1475.90 work units)
Optimal objective 5.89474181e+05

